#######################################
### Exact MIP solver for the HHCRSP ###
#######################################
-- Instance file: new-instances/HHCRSP_50_10_78_0.4_R_RC.txt
-- Max threads: 4
-- Time limit: 999999 seconds
-- Use initial solution: No
Trivial flow violations prevented generating 6394 variables.
Model exported.
Version identifier: 20.1.0.0 | 2020-11-10 | 9bedb6d68
CPXPARAM_Threads                                 4
CPXPARAM_TimeLimit                               999999
Parallel mode: deterministic, using up to 4 threads for concurrent optimization:
 * Starting dual Simplex on 1 thread...
 * Starting Barrier on 3 threads...
Tried aggregator 1 time.
LP Presolve eliminated 1344 rows and 296 columns.
Reduced LP has 6238 rows, 6003 columns, and 52496 nonzeros.
Presolve time = 0.03 sec. (15.33 ticks)
Symmetry aggregator did 4428 additional substitutions.

Iteration log . . .
Iteration:     1   Dual objective     =             0.000000
Iteration:   214   Dual objective     =           154.333333

Dual crossover.
  Dual:  Fixing 106 variables.
      105 DMoves:  Infeasibility  1.23234891e-14  Objective  1.57346147e+02
        0 DMoves:  Infeasibility  1.16573553e-14  Objective  1.57346147e+02
  Dual:  Pushed 6, exchanged 100.
  Primal:  Fixing 29 variables.
       28 PMoves:  Infeasibility  1.66533454e-16  Objective  1.57346147e+02
        0 PMoves:  Infeasibility  2.94035629e-16  Objective  1.57346147e+02
  Primal:  Pushed 12, exchanged 17.

Dual simplex solved model.


Solution status from MIP model:
-- Processing time: 0.059 sec.
-- Memory used: 73.0566 MB
-- Best bound: inf
-- Obj value: 157.346
-- Gap: inf%
-- Total distance: 472.038
-- Total tardiness: 0
-- Largest tardiness: 0
